p cnf 60 30
-7 27 -1 0
28 36 10 0
-21 18 -58 0
-49 54 -45 0
44 -15 -27 0
-12 -20 4 0
17 20 -9 0
-38 2 55 0
53 58 9 0
7 -22 -36 0
18 -16 -3 0
-2 -38 -50 0
-6 -16 -36 0
-50 34 49 0
-24 -47 -37 0
-39 21 36 0
16 -37 -25 0
25 2 -23 0
-10 14 -45 0
-51 55 52 0
10 14 55 0
-49 29 -53 0
-21 -18 40 0
60 14 39 0
38 -28 -44 0
37 -45 -51 0
2 46 -38 0
28 -50 11 0
-33 45 -59 0
-26 19 16 0
